W=5;
H=5;

MAX_TIME=10;
MAX_TRACKS=11;

TARGET=(5,5);

TRAINS=[(1,1,RIGHT),(1,5,LEFT)];

INIT_POS=[
(1,1,STRAIGHT_RL),
(1,5,STRAIGHT_RL),
(2,3,ROCK),
(4,3,ROCK),
(5,5,STRAIGHT_RL),
];
TUNNEL_PAIRS=[];

GATES=[];
ACTIVATIONS=[];

DSWITCHES=[];

STATIONS=[];
